6 -1 6 10 5 0 1 2 5 -1 
6 9 6 10 2 -1 -1 9 8 -1 
0 6 9 6 -1 7 7 9 2 -1 
7 0 9 4 -1 10 0 8 6 -1 
8 4 0 6 5 4 7 5 0 -1 
10 3 6 2 5 1 0 5 0 -1 
0 7 0 4 9 2 -1 -1 1 -1 
1 0 2 2 8 6 5 -1 -1 -1 
7 8 2 4 0 3 2 9 4 -1 
0 9 2 -1 1 -1 9 1 6 -1 
9 0 3 0 8 3 7 2 6 -1 
0 6 4 4 9 10 3 -1 2 -1 
6 1 2 -1 2 2 8 5 1 -1 
0 4 6 9 8 5 2 0 2 -1 
7 10 4 1 3 6 9 -1 8 -1 
9 7 6 3 4 8 3 2 3 -1 
-1 -1 10 0 5 5 0 9 0 -1 
-1 10 5 9 1 8 8 5 7 -1 
4 9 6 -1 6 9 10 3 9 -1 
7 3 -1 1 2 8 1 2 0 -1 
8 1 6 7 0 5 -1 2 6 -1 
3 3 5 -1 1 1 -1 4 0 -1 
-1 1 0 -1 -1 1 4 0 6 -1 
1 10 9 0 4 9 7 10 7 -1 
8 2 3 10 4 4 7 5 0 -1 
10 3 4 5 8 5 -1 10 6 -1 
8 -1 1 -1 2 -1 9 1 4 -1 
4 3 7 2 10 0 2 3 4 -1 
1 5 4 6 4 4 5 4 4 -1 
8 10 4 7 -1 10 4 0 1 -1 
